Route #1: 1 135 171 77 63 29 14 1 
Route #2: 1 19 44 43 147 87 104 1 
Route #3: 1 42 170 65 67 86 54 128 1 
Route #4: 1 59 31 64 82 1 
Route #5: 1 140 169 105 3 17 1 
Route #6: 1 167 69 53 11 99 1 
Route #7: 1 38 45 72 10 1 
Route #8: 1 73 80 150 48 129 1 
Route #9: 1 1 130 151 6 56 1 
Route #10: 1 154 124 92 22 51 1 
Route #11: 1 40 66 39 9 1 
Route #12: 1 8 30 71 106 1 
Route #13: 1 15 95 16 101 1 
Route #14: 1 55 83 156 1 
Route #15: 1 49 153 7 1 
Route #16: 1 74 100 68 1 
Route #17: 1 143 35 23 1 
Route #18: 1 57 20 5 81 1 
Route #19: 1 76 144 107 18 1 
Route #20: 1 137 133 112 1 
Route #21: 1 134 91 136 1 
Route #22: 1 148 79 78 1 
Route #23: 1 33 26 164 61 1 
Route #24: 1 4 60 108 1 
Route #25: 1 115 111 93 1 
Route #26: 1 166 28 62 1 
Route #27: 1 109 157 96 1 
Route #28: 1 24 50 13 1 
Route #29: 1 52 12 1 
Route #30: 1 165 120 114 1 
Route #31: 1 34 58 1 
Route #32: 1 168 123 152 1 
Route #33: 1 27 162 1 
Route #34: 1 139 145 149 1 
Route #35: 1 125 163 1 
Route #36: 1 138 141 1 
Route #37: 1 36 47 1 
Route #38: 1 25 88 1 
Route #39: 1 113 75 1 
Route #40: 1 90 126 158 1 
Route #41: 1 118 160 1 
Route #42: 1 21 146 37 1 
Route #43: 1 84 117 1 
Route #44: 1 116 159 1 
Route #45: 1 102 110 94 1 
Route #46: 1 2 41 1 
Route #47: 1 85 32 142 1 
Route #48: 1 97 132 1 
Route #49: 1 161 155 119 127 1 
Route #50: 1 46 122 1 
Route #51: 1 121 103 70 1 
Route #52: 1 131 89 98 1 

Cost 84486.2
Time 4.4164


 * Another infos *

 Iterations: 172 Time: 4.4164 sec - 0.0736 min - 0.0012 horas
0.0000 h 0.0736 min
Problem dimension: 172
